200
750
598
594
593
588
586
585
583
583
580
577
576
575
573
568
567
561
560
559
559
554
548
546
540
535
529
527
526
525
524
523
516
515
511
509
507
507
504
500
499
491
491
489
488
484
483
480
478
478
477
475
472
465
465
462
459
458
448
448
448
444
442
441
437
433
432
432
430
428
414
411
411
408
405
405
394
392
391
383
383
382
382
381
377
374
374
372
370
370
366
366
363
356
356
351
351
351
351
349
345
338
337
329
329
326
326
325
324
320
320
314
309
308
308
305
294
288
285
280
277
277
276
276
273
268
266
265
264
263
260
260
255
255
253
253
247
243
242
240
238
232
230
229
229
214
212
211
209
208
208
206
201
200
199
196
195
193
193
182
176
174
173
172
168
164
164
163
159
157
156
155
153
150
147
143
142
140
139
138
137
131
129
125
124
121
114
113
113
112
111
105
102
102
97
96
94
94
91
88
85
80
